Solver command line: ['C:\\Users\\Gabriela Escobar\\anaconda3\\envs\\pyomo_env\\Library\\bin\\glpsol.exe', '--write', 'C:\\Users\\GABRIE~1\\AppData\\Local\\Temp\\tmpusedk_ul.glpk.raw', '--wglp', 'C:\\Users\\GABRIE~1\\AppData\\Local\\Temp\\tmp173w16h_.glpk.glp', '--cpxlp', 'C:\\Users\\GABRIE~1\\AppData\\Local\\Temp\\tmpm4a4ujp_.pyomo.lp']

GLPSOL--GLPK LP/MIP Solver 5.0
Parameter(s) specified in the command line:
 --write C:\Users\GABRIE~1\AppData\Local\Temp\tmpusedk_ul.glpk.raw --wglp
 C:\Users\GABRIE~1\AppData\Local\Temp\tmp173w16h_.glpk.glp --cpxlp C:\Users\GABRIE~1\AppData\Local\Temp\tmpm4a4ujp_.pyomo.lp
Reading problem data from 'C:\Users\GABRIE~1\AppData\Local\Temp\tmpm4a4ujp_.pyomo.lp'...
19 rows, 11 columns, 76 non-zeros
161 lines were read
Writing problem data to 'C:\Users\GABRIE~1\AppData\Local\Temp\tmp173w16h_.glpk.glp'...
138 lines were written
GLPK Simplex Optimizer 5.0
19 rows, 11 columns, 76 non-zeros
Preprocessing...
8 rows, 10 columns, 65 non-zeros
Scaling...
 A: min|aij| =  1.000e+00  max|aij| =  3.000e+00  ratio =  3.000e+00
Problem data seem to be well scaled
Constructing initial basis...
Size of triangular part is 8
*     0: obj =  -0.000000000e+00 inf =   0.000e+00 (10)
*     4: obj =   3.756250000e+02 inf =   0.000e+00 (0)
OPTIMAL LP SOLUTION FOUND
Time used:   0.0 secs
Memory used: 0.0 Mb (51495 bytes)
Writing basic solution to 'C:\Users\GABRIE~1\AppData\Local\Temp\tmpusedk_ul.glpk.raw'...
39 lines were written

